Grasp exp. instance_n_15_m_5_id_3.lp tipoLifted 0 szPool 5 nIteration 100 alpha 0.8 
Academic license - for non-commercial use only
Read LP format model from file ../input/instancesGenerated/instance_n_15_m_5_id_3.lp
Reading time = 0.00 seconds
: 5 rows, 15 columns, 75 nonzeros
Optimize a model with 5 rows, 15 columns and 75 nonzeros
Variable types: 0 continuous, 15 integer (15 binary)
Coefficient statistics:
  Matrix range     [1e+00, 1e+01]
  Objective range  [1e+00, 1e+01]
  Bounds range     [1e+00, 1e+00]
  RHS range        [4e+01, 4e+01]
Found heuristic solution: objective 45.0000000

Explored 0 nodes (0 simplex iterations) in 0.00 seconds
Thread count was 1 (of 8 available processors)

Solution count 1: 45 
No other solutions better than 0

Solution limit reached
Best objective 4.500000000000e+01, best bound -, gap -
C_1:	 3.00 x_1  = 0.000000 + 4.00 x_2  = 1.000000 + 2.00 x_3  = 0.000000 + 3.00 x_4  = 0.000000 + 5.00 x_5  = 1.000000 + 7.00 x_6  = 1.000000 + 4.00 x_7  = 0.250000 + 4.00 x_8  = 0.000000 + 4.00 x_9  = 1.000000 + 1.00 x_10  = 1.000000 + 9.00 x_11  = 0.000000 + 4.00 x_12  = 1.000000 + 4.00 x_13  = 0.000000 + 9.00 x_14  = 0.000000 + 9.00 x_15  = 0.593750 <= 36.00
C_2:	 7.00 x_1  = 0.000000 + 4.00 x_2  = 1.000000 + 7.00 x_3  = 0.000000 + 2.00 x_4  = 0.000000 + 7.00 x_5  = 1.000000 + 8.00 x_6  = 1.000000 + 1.00 x_7  = 0.250000 + 4.00 x_8  = 0.000000 + 3.00 x_9  = 1.000000 + 8.00 x_10  = 1.000000 + 2.00 x_11  = 0.000000 + 3.00 x_12  = 1.000000 + 6.00 x_13  = 0.000000 + 7.00 x_14  = 0.000000 + 8.00 x_15  = 0.593750 <= 38.00
C_3:	 7.00 x_1  = 0.000000 + 9.00 x_2  = 1.000000 + 3.00 x_3  = 0.000000 + 8.00 x_4  = 0.000000 + 1.00 x_5  = 1.000000 + 7.00 x_6  = 1.000000 + 6.00 x_7  = 0.250000 + 7.00 x_8  = 0.000000 + 1.00 x_9  = 1.000000 + 1.00 x_10  = 1.000000 + 9.00 x_11  = 0.000000 + 1.00 x_12  = 1.000000 + 5.00 x_13  = 0.000000 + 2.00 x_14  = 0.000000 + 10.00 x_15  = 0.593750 <= 38.00
C_4:	 3.00 x_1  = 0.000000 + 10.00 x_2  = 1.000000 + 5.00 x_3  = 0.000000 + 1.00 x_4  = 0.000000 + 3.00 x_5  = 1.000000 + 3.00 x_6  = 1.000000 + 9.00 x_7  = 0.250000 + 3.00 x_8  = 0.000000 + 6.00 x_9  = 1.000000 + 1.00 x_10  = 1.000000 + 3.00 x_11  = 0.000000 + 10.00 x_12  = 1.000000 + 5.00 x_13  = 0.000000 + 10.00 x_14  = 0.000000 + 8.00 x_15  = 0.593750 <= 40.00
C_5:	 2.00 x_1  = 0.000000 + 7.00 x_2  = 1.000000 + 8.00 x_3  = 0.000000 + 5.00 x_4  = 0.000000 + 6.00 x_5  = 1.000000 + 1.00 x_6  = 1.000000 + 3.00 x_7  = 0.250000 + 2.00 x_8  = 0.000000 + 7.00 x_9  = 1.000000 + 3.00 x_10  = 1.000000 + 4.00 x_11  = 0.000000 + 5.00 x_12  = 1.000000 + 4.00 x_13  = 0.000000 + 8.00 x_14  = 0.000000 + 8.00 x_15  = 0.593750 <= 36.00
Solution initial: 60.437500 
Number Constraints Used in Cover:5
GRASP Method!
Number cuts repeat: 0
value: 60.437500
Number Constraints Used in Cover:6
GRASP Method!
Number cuts repeat: 0
value: 60.000000
Number Constraints Used in Cover:8
GRASP Method!
Number cuts repeat: 0
value: 60.000000
Number Constraints Used in Cover:14
GRASP Method!
Number cuts repeat: 0
value: 60.000000
Number Constraints Used in Cover:18
GRASP Method!
Number cuts repeat: 0
value: 60.000000
Number Constraints Used in Cover:25
GRASP Method!
Number cuts repeat: 0
value: 60.000000
Number Constraints Used in Cover:34
GRASP Method!
Number cuts repeat: 0
value: 60.000000
Number Constraints Used in Cover:40
GRASP Method!
Number cuts repeat: 0
value: 60.000000
Number Constraints Used in Cover:47
GRASP Method!
Number cuts repeat: 0
value: 60.000000
Number Constraints Used in Cover:57
GRASP Method!
Number cuts repeat: 0
value: 60.000000
Number Constraints Used in Cover:66
GRASP Method!
Number cuts repeat: 0
value: 60.000000
Number Constraints Used in Cover:75
GRASP Method!
Number cuts repeat: 0
value: 60.000000
Number Constraints Used in Cover:84
GRASP Method!
Number cuts repeat: 0
value: 60.000000
Number Constraints Used in Cover:90
GRASP Method!
Number cuts repeat: 0
value: 60.000000
Number Constraints Used in Cover:100
GRASP Method!
Number cuts repeat: 0
value: 60.000000
Number Constraints Used in Cover:105
GRASP Method!
Number cuts repeat: 0
value: 60.000000
Number Constraints Used in Cover:120
GRASP Method!
Number cuts repeat: 0
value: 60.000000
Number Constraints Used in Cover:131
GRASP Method!
Number cuts repeat: 0
value: 60.000000
Number Constraints Used in Cover:140
GRASP Method!
Number cuts repeat: 0
value: 60.000000
Number Constraints Used in Cover:143
GRASP Method!
Number cuts repeat: 0
value: 60.000000
Number Constraints Used in Cover:154
GRASP Method!
Number cuts repeat: 0
value: 60.000000
Number Constraints Used in Cover:167
GRASP Method!
Number cuts repeat: 0
value: 60.000000
Number Constraints Used in Cover:176
GRASP Method!
Number cuts repeat: 0
value: 60.000000
Number Constraints Used in Cover:190
GRASP Method!
Number cuts repeat: 0
value: 60.000000
Number Constraints Used in Cover:202
GRASP Method!
Number cuts repeat: 0
value: 60.000000
Number Constraints Used in Cover:210
GRASP Method!
Number cuts repeat: 0
value: 60.000000
Number Constraints Used in Cover:218
GRASP Method!
Number cuts repeat: 0
value: 60.000000
Number Constraints Used in Cover:230
GRASP Method!
Number cuts repeat: 0
value: 60.000000
Number Constraints Used in Cover:241
GRASP Method!
Number cuts repeat: 0
value: 60.000000
Number Constraints Used in Cover:250
GRASP Method!
Number cuts repeat: 0
value: 60.000000
Number Constraints Used in Cover:255
GRASP Method!
Number cuts repeat: 0
value: 60.000000
Number Constraints Used in Cover:263
GRASP Method!
Number cuts repeat: 0
value: 60.000000
Number Constraints Used in Cover:275
GRASP Method!
Number cuts repeat: 0
value: 60.000000
Number Constraints Used in Cover:284
GRASP Method!
Number cuts repeat: 0
value: 60.000000
Number Constraints Used in Cover:299
GRASP Method!
Number cuts repeat: 0
value: 60.000000
Number Constraints Used in Cover:312
GRASP Method!
Number cuts repeat: 0
value: 60.000000
Number Constraints Used in Cover:318
GRASP Method!
Number cuts repeat: 0
value: 60.000000
Number Constraints Used in Cover:332
GRASP Method!
Number cuts repeat: 0
value: 60.000000
Number Constraints Used in Cover:345
GRASP Method!
Number cuts repeat: 0
value: 60.000000
Number Constraints Used in Cover:361
GRASP Method!
Number cuts repeat: 0
value: 60.000000
Number Constraints Used in Cover:372
GRASP Method!
Number cuts repeat: 0
value: 60.000000
Number Constraints Used in Cover:381
GRASP Method!
Number cuts repeat: 0
value: 60.000000
Number Constraints Used in Cover:393
GRASP Method!
Number cuts repeat: 0
value: 60.000000
Number Constraints Used in Cover:401
GRASP Method!
Number cuts repeat: 0
value: 60.000000
Number Constraints Used in Cover:411
GRASP Method!
Number cuts repeat: 0
value: 60.000000
Number Constraints Used in Cover:421
GRASP Method!
Number cuts repeat: 0
value: 60.000000
Number Constraints Used in Cover:429
GRASP Method!
Number cuts repeat: 0
value: 60.000000
Number Constraints Used in Cover:441
GRASP Method!
Number cuts repeat: 0
value: 60.000000
Number Constraints Used in Cover:454
GRASP Method!
Number cuts repeat: 0
value: 60.000000
Number Constraints Used in Cover:462
GRASP Method!
Number cuts repeat: 0
value: 60.000000
Number Constraints Used in Cover:476
GRASP Method!
Number cuts repeat: 0
value: 60.000000
Number Constraints Used in Cover:479
GRASP Method!
Number cuts repeat: 0
value: 60.000000
Number Constraints Used in Cover:490
GRASP Method!
Number cuts repeat: 0
value: 60.000000
Number Constraints Used in Cover:496
GRASP Method!
Number cuts repeat: 0
value: 60.000000
Number Constraints Used in Cover:499
GRASP Method!
Number cuts repeat: 0
value: 60.000000
Number Constraints Used in Cover:510
GRASP Method!
Number cuts repeat: 0
value: 60.000000
Number Constraints Used in Cover:522
GRASP Method!
Number cuts repeat: 0
value: 60.000000
Number Constraints Used in Cover:531
GRASP Method!
Number cuts repeat: 0
value: 60.000000
Number Constraints Used in Cover:546
GRASP Method!
Number cuts repeat: 0
value: 60.000000
Number Constraints Used in Cover:561
GRASP Method!
Number cuts repeat: 0
value: 60.000000
Number Constraints Used in Cover:573
GRASP Method!
Number cuts repeat: 0
value: 60.000000
Number Constraints Used in Cover:587
GRASP Method!
Number cuts repeat: 0
value: 60.000000
Number Constraints Used in Cover:600
GRASP Method!
Number cuts repeat: 0
value: 60.000000
Number Constraints Used in Cover:611
GRASP Method!
Number cuts repeat: 0
value: 60.000000
Number Constraints Used in Cover:624
GRASP Method!
Number cuts repeat: 0
value: 60.000000
Number Constraints Used in Cover:630
GRASP Method!
Number cuts repeat: 0
value: 60.000000
Number Constraints Used in Cover:637
GRASP Method!
Number cuts repeat: 0
value: 60.000000
Number Constraints Used in Cover:653
GRASP Method!
Number cuts repeat: 0
value: 60.000000
Number Constraints Used in Cover:672
GRASP Method!
Number cuts repeat: 0
value: 60.000000
Number Constraints Used in Cover:679
GRASP Method!
Number cuts repeat: 0
value: 60.000000
Number Constraints Used in Cover:682
GRASP Method!
Number cuts repeat: 0
value: 60.000000
Number Constraints Used in Cover:687
GRASP Method!
Number cuts repeat: 0
value: 60.000000
Number Constraints Used in Cover:700
GRASP Method!
Number cuts repeat: 0
value: 60.000000
Number Constraints Used in Cover:713
GRASP Method!
Number cuts repeat: 0
value: 60.000000
Number Constraints Used in Cover:723
GRASP Method!
Number cuts repeat: 0
value: 60.000000
Number Constraints Used in Cover:728
GRASP Method!
Number cuts repeat: 0
value: 60.000000
Number Constraints Used in Cover:738
GRASP Method!
Number cuts repeat: 0
value: 60.000000
Number Constraints Used in Cover:745
GRASP Method!
Number cuts repeat: 0
value: 60.000000
Number Constraints Used in Cover:748
GRASP Method!
Number cuts repeat: 0
value: 60.000000
Number Constraints Used in Cover:756
GRASP Method!
Number cuts repeat: 0
value: 60.000000
Number Constraints Used in Cover:766
GRASP Method!
Number cuts repeat: 0
value: 60.000000
Number Constraints Used in Cover:771
GRASP Method!
Number cuts repeat: 0
value: 60.000000
Number Constraints Used in Cover:778
GRASP Method!
Number cuts repeat: 0
value: 60.000000
Number Constraints Used in Cover:784
GRASP Method!
Number cuts repeat: 0
value: 60.000000
Number Constraints Used in Cover:793
GRASP Method!
Number cuts repeat: 0
value: 60.000000
Number Constraints Used in Cover:799
GRASP Method!
Number cuts repeat: 0
value: 60.000000
Number Constraints Used in Cover:804
GRASP Method!
Number cuts repeat: 0
value: 60.000000
Number Constraints Used in Cover:814
GRASP Method!
Number cuts repeat: 0
value: 60.000000
Number Constraints Used in Cover:824
GRASP Method!
Number cuts repeat: 0
value: 60.000000
Number Constraints Used in Cover:828
GRASP Method!
Number cuts repeat: 0
value: 60.000000
Number Constraints Used in Cover:840
GRASP Method!
Number cuts repeat: 0
value: 60.000000
Number Constraints Used in Cover:846
GRASP Method!
Number cuts repeat: 0
value: 60.000000
Number Constraints Used in Cover:853
GRASP Method!
Number cuts repeat: 0
value: 60.000000
Number Constraints Used in Cover:869
GRASP Method!
Number cuts repeat: 0
value: 60.000000
Number Constraints Used in Cover:877
GRASP Method!
Number cuts repeat: 0
value: 60.000000
Number Constraints Used in Cover:882
GRASP Method!
Number cuts repeat: 0
value: 60.000000
Number Constraints Used in Cover:885
GRASP Method!
Number cuts repeat: 0
value: 60.000000
Number Constraints Used in Cover:891
GRASP Method!
Number cuts repeat: 0
value: 60.000000
Number Constraints Used in Cover:896
GRASP Method!
Number cuts repeat: 0
value: 60.000000
Number Constraints Used in Cover:905
GRASP Method!
Number cuts repeat: 0
value: 60.000000
Number Constraints Used in Cover:910
GRASP Method!
Number cuts repeat: 0
value: 60.000000
Number Constraints Used in Cover:914
GRASP Method!
Number cuts repeat: 0
value: 60.000000
Number Constraints Used in Cover:916
GRASP Method!
Number cuts repeat: 0
value: 60.000000
Number Constraints Used in Cover:924
GRASP Method!
Number cuts repeat: 0
value: 60.000000
Number Cuts Final: 927
